10
1 7
2 4
3 10
4 8
5 2
6 3
7 1
8 5
9 1
10 3
35
0 1 35
1 0 35
0 2 59
2 0 59
0 3 76
3 0 76
0 4 58
4 0 58
0 5 46
5 0 46
0 6 79
6 0 79
0 7 9
7 0 9
0 8 4
8 0 4
0 9 98
9 0 98
1 2 38
1 4 56
1 5 87
1 8 61
2 3 74
2 5 73
2 6 90
2 8 22
3 5 21
3 6 8
3 8 10
3 9 10
4 8 56
5 6 34
6 7 15
7 8 67
7 9 78
